c 
p cnf 10 40
-10 0
-3 0
8 3 7 0
2 -3 0
7 8 0
-7 0
-1 -2 3 0
-7 9 -5 2 0
4 0
-2 7 0
-4 -9 3 0
-10 3 -7 0
1 0
-3 0
7 5 0
-6 -1 -8 2 -4 0
6 8 5 0
-1 -4 -7 0
-3 -10 0
-3 0
-6 3 8 -7 0
-8 4 -7 5 0
-6 -1 0
-8 0
-10 9 4 -3 0
10 -4 0
3 -5 2 -7 0
6 10 -4 0
-6 2 -8 0
-6 0
5 0
-8 2 6 -1 0
8 3 -1 0
-7 2 0
1 5 -2 -8 -4 0
-6 0
-4 -2 0
-2 -3 -8 -10 5 0
-1 -9 5 0
-2 -6 8 10 -9 0
